55229
2 25 1325
25 31 299
31 11 732
11 45 436
45 42 1302
42 33 4807
33 27 4053
27 1 4123
1 36 8989
36 46 402
46 29 1012
29 21 516
21 23 176
23 17 619
17 48 415
48 49 761
49 19 934
19 44 1282
44 38 690
38 8 368
8 32 678
32 41 362
41 5 714
5 35 323
35 24 296
24 50 868
50 20 763
20 37 714
37 7 517
7 40 1176
40 51 1042
51 13 644
13 43 790
43 3 1096
3 6 385
6 28 404
28 55 487
55 26 397
26 53 1237
53 34 396
34 54 401
54 47 491
47 30 944
30 4 380
4 18 606
18 12 768
12 14 816
14 9 471
9 10 803
10 22 117
22 16 737
16 39 451
39 15 485
15 52 631
52 2 598
